
******************************************************************************
This program contains Ipopt, a library for large-scale nonlinear optimization.
 Ipopt is released as open source code under the Eclipse Public License (EPL).
         For more information visit http://projects.coin-or.org/Ipopt
******************************************************************************

This is Ipopt version 3.12.6, running with linear solver ma57.

Number of nonzeros in equality constraint Jacobian...:        0
Number of nonzeros in inequality constraint Jacobian.:        0
Number of nonzeros in Lagrangian Hessian.............:     9999

Total number of variables............................:     5000
                     variables with only lower bounds:        0
                variables with lower and upper bounds:     1100
                     variables with only upper bounds:        0
Total number of equality constraints.................:        0
Total number of inequality constraints...............:        0
        inequality constraints with only lower bounds:        0
   inequality constraints with lower and upper bounds:        0
        inequality constraints with only upper bounds:        0

iter    objective    inf_pr   inf_du lg(mu)  ||d||  lg(rg) alpha_du alpha_pr  ls
   0 -6.0554939e+04 0.00e+00 1.00e+02  -1.0 0.00e+00    -  0.00e+00 0.00e+00   0
   1 -2.0528240e+11 0.00e+00 1.45e+09  -1.0 6.37e+03    -  4.31e-02 1.00e+00f  1
   2 -2.5341605e+11 0.00e+00 4.22e+08  -1.0 1.11e+01   4.0 9.89e-01 1.00e+00f  1
   3 -2.6261013e+11 0.00e+00 1.24e+08  -1.0 6.22e+00   3.5 1.00e+00 1.00e+00f  1
   4 -2.6439323e+11 0.00e+00 3.65e+07  -1.0 3.57e+00   3.0 1.00e+00 1.00e+00f  1
   5 -2.6474202e+11 0.00e+00 1.08e+07  -1.0 2.07e+00   2.6 1.00e+00 1.00e+00f  1
   6 -2.6481119e+11 0.00e+00 3.19e+06  -1.0 1.21e+00   2.1 1.00e+00 1.00e+00f  1
   7 -2.6482682e+11 0.00e+00 9.46e+05  -1.0 7.06e-01   1.6 1.00e+00 1.00e+00f  1
   8 -2.6483557e+11 0.00e+00 2.80e+05  -1.0 1.59e+00   1.1 1.00e+00 1.00e+00f  1
   9 -2.6483729e+11 0.00e+00 8.30e+04  -1.0 3.49e-01   1.6 1.00e+00 1.00e+00f  1
iter    objective    inf_pr   inf_du lg(mu)  ||d||  lg(rg) alpha_du alpha_pr  ls
  10 -2.6483905e+11 0.00e+00 2.46e+04  -1.0 8.15e-01   1.1 1.00e+00 1.00e+00f  1
  11 -2.6483931e+11 0.00e+00 7.27e+03  -1.0 3.81e-01   1.5 1.00e+00 1.00e+00f  1
  12 -2.6483974e+11 0.00e+00 2.14e+03  -1.0 1.72e+00   1.0 1.00e+00 1.00e+00f  1
  13 -2.6483984e+11 0.00e+00 6.16e+02  -1.0 6.66e-01   1.5 1.00e+00 1.00e+00f  1
  14 -2.6484007e+11 0.00e+00 1.61e+02  -1.0 2.20e+00   1.0 1.00e+00 1.00e+00f  1
  15 -2.6484014e+11 0.00e+00 2.76e+01  -1.0 8.14e-01   1.4 1.00e+00 1.00e+00f  1
  16 -2.6484018e+11 0.00e+00 2.01e+01  -1.0 2.63e+00   0.9 1.00e+00 1.60e-01f  1
  17 -2.6484026e+11 0.00e+00 2.03e+01  -1.0 8.86e-01   1.4 1.00e+00 1.00e+00f  1
  18 -2.6484042e+11 0.00e+00 2.03e+01  -1.0 6.68e+00   0.9 4.40e-01 2.81e-01f  1
  19 -2.6484043e+11 0.00e+00 2.02e+01  -1.0 1.00e+00   1.3 1.00e+00 5.92e-02f  1
iter    objective    inf_pr   inf_du lg(mu)  ||d||  lg(rg) alpha_du alpha_pr  ls
  20 -2.6484050e+11 0.00e+00 2.02e+01  -1.0 3.73e-01   1.7 1.00e+00 1.00e+00f  1
  21 -2.6484061e+11 0.00e+00 2.02e+01  -1.0 1.13e+00   1.3 1.00e+00 6.15e-01f  1
  22 -2.6484062e+11 0.00e+00 2.01e+01  -1.0 4.20e-01   1.7 1.00e+00 1.14e-01f  1
  23 -2.6484080e+11 0.00e+00 2.03e+01  -1.0 1.27e+00   1.2 1.00e+00 7.75e-01f  1
  24 -2.6484080e+11 0.00e+00 2.02e+01  -1.0 4.74e-01   1.6 1.00e+00 6.58e-02f  1
  25 -2.6484098e+11 0.00e+00 2.03e+01  -1.0 1.43e+00   1.2 1.00e+00 6.38e-01f  1
  26 -2.6484099e+11 0.00e+00 2.02e+01  -1.0 5.32e-01   1.6 1.00e+00 7.08e-02f  1
  27 -2.6484116e+11 0.00e+00 2.02e+01  -1.0 1.62e+00   1.1 1.00e+00 4.75e-01f  1
  28 -2.6484117e+11 0.00e+00 2.01e+01  -1.0 5.98e-01   1.5 1.00e+00 1.08e-01f  1
  29 -2.6484130e+11 0.00e+00 2.00e+01  -1.0 1.82e+00   1.1 1.00e+00 3.09e-01f  1
iter    objective    inf_pr   inf_du lg(mu)  ||d||  lg(rg) alpha_du alpha_pr  ls
  30 -2.6484138e+11 0.00e+00 2.00e+01  -1.0 6.66e-01   1.5 1.00e+00 5.71e-01f  1
  31 -2.6484144e+11 0.00e+00 1.96e+01  -1.0 2.03e+00   1.0 1.00e+00 1.24e-01f  1
  32 -2.6484147e+11 0.00e+00 1.96e+01  -1.0 7.42e-01   1.4 1.00e+00 2.42e-01f  1
  33 -2.6484156e+11 0.00e+00 1.95e+01  -1.0 2.34e+00   0.9 1.00e+00 1.84e-01f  1
  34 -2.6484160e+11 0.00e+00 1.95e+01  -1.0 8.32e-01   1.4 1.00e+00 2.79e-01f  1
  35 -2.6484171e+11 0.00e+00 1.94e+01  -1.0 3.17e+00   0.9 1.00e+00 1.85e-01f  1
  36 -2.6484176e+11 0.00e+00 1.94e+01  -1.0 9.32e-01   1.3 1.00e+00 2.96e-01f  1
  37 -2.6484197e+11 0.00e+00 2.01e+01  -1.0 2.60e+01   0.8 1.09e-01 1.08e-01f  1
  38 -2.6484206e+11 0.00e+00 2.04e+01  -1.0 1.10e+00   1.3 1.00e+00 1.98e-01f  1
  39 -2.6484212e+11 0.00e+00 1.99e+01  -1.0 3.98e-01   1.7 5.27e-01 3.60e-01f  1
iter    objective    inf_pr   inf_du lg(mu)  ||d||  lg(rg) alpha_du alpha_pr  ls
  40 -2.6484221e+11 0.00e+00 1.97e+01  -1.0 1.18e+00   1.2 1.00e+00 2.16e-01f  1
  41 -2.6484230e+11 0.00e+00 1.94e+01  -1.0 4.39e-01   1.6 1.00e+00 6.08e-01f  1
  42 -2.6484241e+11 0.00e+00 1.93e+01  -1.0 1.33e+00   1.2 1.00e+00 2.48e-01f  1
  43 -2.6484251e+11 0.00e+00 1.94e+01  -1.0 4.92e-01   1.6 1.00e+00 6.44e-01f  1
  44 -2.6484263e+11 0.00e+00 1.93e+01  -1.0 1.50e+00   1.1 1.00e+00 2.35e-01f  1
  45 -2.6484273e+11 0.00e+00 1.93e+01  -1.0 5.52e-01   1.5 1.00e+00 5.98e-01f  1
  46 -2.6484285e+11 0.00e+00 1.92e+01  -1.0 1.68e+00   1.1 1.00e+00 2.13e-01f  1
  47 -2.6484296e+11 0.00e+00 1.92e+01  -1.0 6.19e-01   1.5 1.00e+00 5.32e-01f  1
  48 -2.6484308e+11 0.00e+00 1.90e+01  -1.0 1.89e+00   1.0 1.00e+00 1.90e-01f  1
  49 -2.6484319e+11 0.00e+00 1.91e+01  -1.0 6.93e-01   1.4 1.00e+00 4.59e-01f  1
iter    objective    inf_pr   inf_du lg(mu)  ||d||  lg(rg) alpha_du alpha_pr  ls
  50 -2.6484331e+11 0.00e+00 1.89e+01  -1.0 2.13e+00   1.0 1.00e+00 1.68e-01f  1
  51 -2.6484341e+11 0.00e+00 1.89e+01  -1.0 7.76e-01   1.4 1.00e+00 3.84e-01f  1
  52 -2.6484354e+11 0.00e+00 1.87e+01  -1.0 2.39e+00   0.9 1.00e+00 1.52e-01f  1
  53 -2.6484361e+11 0.00e+00 1.88e+01  -1.0 8.68e-01   1.3 1.00e+00 2.86e-01f  1
  54 -2.6484374e+11 0.00e+00 1.86e+01  -1.0 3.24e+00   0.9 1.00e+00 1.67e-01f  1
  55 -2.6484381e+11 0.00e+00 1.85e+01  -1.0 9.60e-01   1.3 1.00e+00 2.84e-01f  1
  56 -2.6484401e+11 0.00e+00 1.86e+01  -1.0 3.18e+01   0.8 8.94e-02 8.85e-02f  1
  57 -2.6484411e+11 0.00e+00 1.88e+01  -1.0 1.11e+00   1.2 1.00e+00 2.30e-01f  1
  58 -2.6484417e+11 0.00e+00 1.84e+01  -1.0 3.98e-01   1.7 5.77e-01 3.57e-01f  1
  59 -2.6484426e+11 0.00e+00 1.82e+01  -1.0 1.19e+00   1.2 1.00e+00 2.19e-01f  1
iter    objective    inf_pr   inf_du lg(mu)  ||d||  lg(rg) alpha_du alpha_pr  ls
  60 -2.6484434e+11 0.00e+00 1.80e+01  -1.0 4.41e-01   1.6 1.00e+00 5.82e-01f  1
  61 -2.6484443e+11 0.00e+00 1.79e+01  -1.0 1.34e+00   1.1 1.00e+00 2.43e-01f  1
  62 -2.6484452e+11 0.00e+00 1.80e+01  -1.0 4.95e-01   1.6 1.00e+00 6.18e-01f  1
  63 -2.6484463e+11 0.00e+00 1.79e+01  -1.0 1.50e+00   1.1 1.00e+00 2.27e-01f  1
  64 -2.6484472e+11 0.00e+00 1.79e+01  -1.0 5.55e-01   1.5 1.00e+00 5.72e-01f  1
  65 -2.6484483e+11 0.00e+00 1.78e+01  -1.0 1.69e+00   1.0 1.00e+00 2.07e-01f  1
  66 -2.6484492e+11 0.00e+00 1.78e+01  -1.0 6.21e-01   1.5 1.00e+00 5.11e-01f  1
  67 -2.6484504e+11 0.00e+00 1.76e+01  -1.0 1.90e+00   1.0 1.00e+00 1.87e-01f  1
  68 -2.6484513e+11 0.00e+00 1.77e+01  -1.0 6.95e-01   1.4 1.00e+00 4.46e-01f  1
  69 -2.6484525e+11 0.00e+00 1.75e+01  -1.0 2.14e+00   0.9 1.00e+00 1.68e-01f  1
iter    objective    inf_pr   inf_du lg(mu)  ||d||  lg(rg) alpha_du alpha_pr  ls
  70 -2.6484534e+11 0.00e+00 1.76e+01  -1.0 7.79e-01   1.4 1.00e+00 3.80e-01f  1
  71 -2.6484546e+11 0.00e+00 1.74e+01  -1.0 2.40e+00   0.9 1.00e+00 1.55e-01f  1
  72 -2.6484553e+11 0.00e+00 1.74e+01  -1.0 8.71e-01   1.3 1.00e+00 2.97e-01f  1
  73 -2.6484565e+11 0.00e+00 1.72e+01  -1.0 3.20e+00   0.8 1.00e+00 1.70e-01f  1
  74 -2.6484572e+11 0.00e+00 1.72e+01  -1.0 9.69e-01   1.3 1.00e+00 2.91e-01f  1
  75 -2.6484595e+11 0.00e+00 1.71e+01  -1.0 1.63e+01   0.8 1.78e-01 1.66e-01f  1
  76 -2.6484600e+11 0.00e+00 1.71e+01  -1.0 1.07e+00   1.2 1.00e+00 1.37e-01f  1
  77 -2.6484606e+11 0.00e+00 1.70e+01  -1.0 3.98e-01   1.6 1.00e+00 4.13e-01f  1
  78 -2.6484614e+11 0.00e+00 1.67e+01  -1.0 1.19e+00   1.2 1.00e+00 2.48e-01f  1
  79 -2.6484621e+11 0.00e+00 1.66e+01  -1.0 4.40e-01   1.6 1.00e+00 6.07e-01f  1
iter    objective    inf_pr   inf_du lg(mu)  ||d||  lg(rg) alpha_du alpha_pr  ls
  80 -2.6484630e+11 0.00e+00 1.65e+01  -1.0 1.33e+00   1.1 1.00e+00 2.50e-01f  1
  81 -2.6484638e+11 0.00e+00 1.66e+01  -1.0 4.93e-01   1.5 1.00e+00 6.37e-01f  1
  82 -2.6484647e+11 0.00e+00 1.65e+01  -1.0 1.50e+00   1.1 1.00e+00 2.33e-01f  1
  83 -2.6484655e+11 0.00e+00 1.65e+01  -1.0 5.53e-01   1.5 1.00e+00 5.83e-01f  1
  84 -2.6484664e+11 0.00e+00 1.63e+01  -1.0 1.68e+00   1.0 1.00e+00 2.11e-01f  1
  85 -2.6484672e+11 0.00e+00 1.64e+01  -1.0 6.19e-01   1.4 1.00e+00 5.15e-01f  1
  86 -2.6484681e+11 0.00e+00 1.62e+01  -1.0 1.89e+00   0.9 1.00e+00 1.88e-01f  1
  87 -2.6484689e+11 0.00e+00 1.63e+01  -1.0 6.92e-01   1.4 1.00e+00 4.42e-01f  1
  88 -2.6484699e+11 0.00e+00 1.61e+01  -1.0 2.12e+00   0.9 1.00e+00 1.68e-01f  1
  89 -2.6484706e+11 0.00e+00 1.61e+01  -1.0 7.75e-01   1.3 1.00e+00 3.70e-01f  1
iter    objective    inf_pr   inf_du lg(mu)  ||d||  lg(rg) alpha_du alpha_pr  ls
  90 -2.6484716e+11 0.00e+00 1.59e+01  -1.0 2.38e+00   0.8 1.00e+00 1.58e-01f  1
  91 -2.6484722e+11 0.00e+00 1.60e+01  -1.0 8.64e-01   1.3 1.00e+00 3.11e-01f  1
  92 -2.6484733e+11 0.00e+00 1.55e+01  -1.0 3.17e+00   0.8 1.00e+00 1.76e-01f  1
  93 -2.6484738e+11 0.00e+00 1.53e+01  -1.0 9.35e-01   1.2 1.00e+00 2.84e-01f  1
  94 -2.6484755e+11 0.00e+00 1.54e+01  -1.0 1.13e+01   0.7 2.61e-01 1.84e-01f  1
  95 -2.6484760e+11 0.00e+00 1.53e+01  -1.0 1.05e+00   1.2 1.00e+00 2.13e-01f  1
  96 -2.6484763e+11 0.00e+00 1.53e+01  -1.0 3.91e-01   1.6 1.00e+00 3.38e-01f  1
  97 -2.6484769e+11 0.00e+00 1.53e+01  -1.0 1.18e+00   1.1 1.00e+00 2.42e-01f  1
  98 -2.6484775e+11 0.00e+00 1.53e+01  -1.0 4.39e-01   1.5 1.00e+00 6.02e-01f  1
  99 -2.6484782e+11 0.00e+00 1.52e+01  -1.0 1.33e+00   1.1 1.00e+00 2.56e-01f  1
iter    objective    inf_pr   inf_du lg(mu)  ||d||  lg(rg) alpha_du alpha_pr  ls
 100 -2.6484788e+11 0.00e+00 1.53e+01  -1.0 4.92e-01   1.5 1.00e+00 6.54e-01f  1
 101 -2.6484796e+11 0.00e+00 1.52e+01  -1.0 1.49e+00   1.0 1.00e+00 2.40e-01f  1
 102 -2.6484802e+11 0.00e+00 1.52e+01  -1.0 5.51e-01   1.4 1.00e+00 6.00e-01f  1
 103 -2.6484810e+11 0.00e+00 1.50e+01  -1.0 1.68e+00   1.0 1.00e+00 2.17e-01f  1
 104 -2.6484817e+11 0.00e+00 1.51e+01  -1.0 6.17e-01   1.4 1.00e+00 5.27e-01f  1
 105 -2.6484825e+11 0.00e+00 1.49e+01  -1.0 1.88e+00   0.9 1.00e+00 1.92e-01f  1
 106 -2.6484831e+11 0.00e+00 1.50e+01  -1.0 6.89e-01   1.3 1.00e+00 4.49e-01f  1
 107 -2.6484839e+11 0.00e+00 1.48e+01  -1.0 2.11e+00   0.9 1.00e+00 1.71e-01f  1
 108 -2.6484845e+11 0.00e+00 1.48e+01  -1.0 7.71e-01   1.3 1.00e+00 3.72e-01f  1
 109 -2.6484854e+11 0.00e+00 1.46e+01  -1.0 2.36e+00   0.8 1.00e+00 1.62e-01f  1
iter    objective    inf_pr   inf_du lg(mu)  ||d||  lg(rg) alpha_du alpha_pr  ls
 110 -2.6484859e+11 0.00e+00 1.46e+01  -1.0 8.57e-01   1.2 1.00e+00 3.14e-01f  1
 111 -2.6484870e+11 0.00e+00 1.42e+01  -1.0 3.15e+00   0.8 1.00e+00 1.81e-01f  1
 112 -2.6484875e+11 0.00e+00 1.42e+01  -1.0 9.36e-01   1.2 1.00e+00 2.88e-01f  1
 113 -2.6484889e+11 0.00e+00 1.42e+01  -1.0 9.22e+00   0.7 3.21e-01 1.87e-01f  1
 114 -2.6484893e+11 0.00e+00 1.41e+01  -1.0 1.05e+00   1.1 1.00e+00 2.16e-01f  1
 115 -2.6484896e+11 0.00e+00 1.42e+01  -1.0 3.91e-01   1.6 1.00e+00 4.39e-01f  1
 116 -2.6484901e+11 0.00e+00 1.41e+01  -1.0 1.18e+00   1.1 1.00e+00 2.19e-01f  1
 117 -2.6484904e+11 0.00e+00 1.41e+01  -1.0 4.38e-01   1.5 1.00e+00 4.35e-01f  1
 118 -2.6484910e+11 0.00e+00 1.40e+01  -1.0 1.33e+00   1.0 1.00e+00 2.35e-01f  1
 119 -2.6484914e+11 0.00e+00 1.41e+01  -1.0 4.92e-01   1.5 1.00e+00 5.81e-01f  1
iter    objective    inf_pr   inf_du lg(mu)  ||d||  lg(rg) alpha_du alpha_pr  ls
 120 -2.6484921e+11 0.00e+00 1.40e+01  -1.0 1.49e+00   1.0 1.00e+00 2.32e-01f  1
 121 -2.6484926e+11 0.00e+00 1.40e+01  -1.0 5.51e-01   1.4 1.00e+00 5.76e-01f  1
 122 -2.6484933e+11 0.00e+00 1.39e+01  -1.0 1.68e+00   0.9 1.00e+00 2.16e-01f  1
 123 -2.6484938e+11 0.00e+00 1.39e+01  -1.0 6.16e-01   1.4 1.00e+00 5.23e-01f  1
 124 -2.6484945e+11 0.00e+00 1.38e+01  -1.0 1.88e+00   0.9 1.00e+00 1.95e-01f  1
 125 -2.6484951e+11 0.00e+00 1.38e+01  -1.0 6.89e-01   1.3 1.00e+00 4.53e-01f  1
 126 -2.6484958e+11 0.00e+00 1.37e+01  -1.0 2.11e+00   0.8 1.00e+00 1.75e-01f  1
 127 -2.6484963e+11 0.00e+00 1.37e+01  -1.0 7.70e-01   1.3 1.00e+00 3.79e-01f  1
 128 -2.6484970e+11 0.00e+00 1.35e+01  -1.0 2.36e+00   0.8 1.00e+00 1.66e-01f  1
 129 -2.6484975e+11 0.00e+00 1.35e+01  -1.0 8.57e-01   1.2 1.00e+00 3.21e-01f  1
iter    objective    inf_pr   inf_du lg(mu)  ||d||  lg(rg) alpha_du alpha_pr  ls
 130 -2.6484985e+11 0.00e+00 1.31e+01  -1.0 3.12e+00   0.7 1.00e+00 1.87e-01f  1
 131 -2.6484990e+11 0.00e+00 1.31e+01  -1.0 9.37e-01   1.2 1.00e+00 2.86e-01f  1
 132 -2.6485003e+11 0.00e+00 1.31e+01  -1.0 7.99e+00   0.7 3.75e-01 1.82e-01f  1
 133 -2.6485006e+11 0.00e+00 1.30e+01  -1.0 1.05e+00   1.1 1.00e+00 2.11e-01f  1
 134 -2.6485009e+11 0.00e+00 1.31e+01  -1.0 3.91e-01   1.5 1.00e+00 4.86e-01f  1
 135 -2.6485013e+11 0.00e+00 1.30e+01  -1.0 1.18e+00   1.0 1.00e+00 2.33e-01f  1
 136 -2.6485016e+11 0.00e+00 1.31e+01  -1.0 4.39e-01   1.5 1.00e+00 5.17e-01f  1
 137 -2.6485021e+11 0.00e+00 1.30e+01  -1.0 1.33e+00   1.0 1.00e+00 2.34e-01f  1
 138 -2.6485025e+11 0.00e+00 1.30e+01  -1.0 4.92e-01   1.4 1.00e+00 5.78e-01f  1
 139 -2.6485031e+11 0.00e+00 1.29e+01  -1.0 1.49e+00   0.9 1.00e+00 2.30e-01f  1
iter    objective    inf_pr   inf_du lg(mu)  ||d||  lg(rg) alpha_du alpha_pr  ls
 140 -2.6485035e+11 0.00e+00 1.29e+01  -1.0 5.50e-01   1.4 1.00e+00 5.65e-01f  1
 141 -2.6485041e+11 0.00e+00 1.28e+01  -1.0 1.68e+00   0.9 1.00e+00 2.15e-01f  1
 142 -2.6485046e+11 0.00e+00 1.28e+01  -1.0 6.15e-01   1.3 1.00e+00 5.17e-01f  1
 143 -2.6485052e+11 0.00e+00 1.27e+01  -1.0 1.88e+00   0.8 1.00e+00 1.96e-01f  1
 144 -2.6485056e+11 0.00e+00 1.27e+01  -1.0 6.87e-01   1.3 1.00e+00 4.51e-01f  1
 145 -2.6485062e+11 0.00e+00 1.26e+01  -1.0 2.11e+00   0.8 1.00e+00 1.78e-01f  1
 146 -2.6485067e+11 0.00e+00 1.26e+01  -1.0 7.68e-01   1.2 1.00e+00 3.80e-01f  1
 147 -2.6485073e+11 0.00e+00 1.24e+01  -1.0 2.36e+00   0.7 1.00e+00 1.71e-01f  1
 148 -2.6485078e+11 0.00e+00 1.25e+01  -1.0 8.54e-01   1.2 1.00e+00 3.25e-01f  1
 149 -2.6485086e+11 0.00e+00 1.21e+01  -1.0 3.08e+00   0.7 1.00e+00 1.90e-01f  1
iter    objective    inf_pr   inf_du lg(mu)  ||d||  lg(rg) alpha_du alpha_pr  ls
 150 -2.6485090e+11 0.00e+00 1.21e+01  -1.0 9.37e-01   1.1 1.00e+00 2.94e-01f  1
 151 -2.6485101e+11 0.00e+00 1.21e+01  -1.0 7.03e+00   0.6 4.35e-01 1.83e-01f  1
 152 -2.6485104e+11 0.00e+00 1.20e+01  -1.0 1.05e+00   1.1 1.00e+00 2.13e-01f  1
 153 -2.6485107e+11 0.00e+00 1.21e+01  -1.0 3.91e-01   1.5 1.00e+00 5.17e-01f  1
 154 -2.6485111e+11 0.00e+00 1.20e+01  -1.0 1.18e+00   1.0 1.00e+00 2.29e-01f  1
 155 -2.6485113e+11 0.00e+00 1.20e+01  -1.0 4.38e-01   1.4 1.00e+00 4.68e-01f  1
 156 -2.6485117e+11 0.00e+00 1.20e+01  -1.0 1.33e+00   1.0 1.00e+00 2.28e-01f  1
 157 -2.6485121e+11 0.00e+00 1.20e+01  -1.0 4.91e-01   1.4 1.00e+00 5.42e-01f  1
 158 -2.6485125e+11 0.00e+00 1.19e+01  -1.0 1.49e+00   0.9 1.00e+00 2.29e-01f  1
 159 -2.6485129e+11 0.00e+00 1.19e+01  -1.0 5.49e-01   1.3 1.00e+00 5.56e-01f  1
iter    objective    inf_pr   inf_du lg(mu)  ||d||  lg(rg) alpha_du alpha_pr  ls
 160 -2.6485134e+11 0.00e+00 1.18e+01  -1.0 1.67e+00   0.9 1.00e+00 2.18e-01f  1
 161 -2.6485138e+11 0.00e+00 1.18e+01  -1.0 6.14e-01   1.3 1.00e+00 5.19e-01f  1
 162 -2.6485143e+11 0.00e+00 1.17e+01  -1.0 1.87e+00   0.8 1.00e+00 2.00e-01f  1
 163 -2.6485147e+11 0.00e+00 1.17e+01  -1.0 6.85e-01   1.2 1.00e+00 4.58e-01f  1
 164 -2.6485153e+11 0.00e+00 1.16e+01  -1.0 2.10e+00   0.8 1.00e+00 1.83e-01f  1
 165 -2.6485156e+11 0.00e+00 1.16e+01  -1.0 7.65e-01   1.2 1.00e+00 3.89e-01f  1
 166 -2.6485162e+11 0.00e+00 1.15e+01  -1.0 2.35e+00   0.7 1.00e+00 1.75e-01f  1
 167 -2.6485166e+11 0.00e+00 1.15e+01  -1.0 8.51e-01   1.1 1.00e+00 3.32e-01f  1
 168 -2.6485173e+11 0.00e+00 1.12e+01  -1.0 3.04e+00   0.7 1.00e+00 1.96e-01f  1
 169 -2.6485177e+11 0.00e+00 1.12e+01  -1.0 9.37e-01   1.1 1.00e+00 2.97e-01f  1
iter    objective    inf_pr   inf_du lg(mu)  ||d||  lg(rg) alpha_du alpha_pr  ls
 170 -2.6485187e+11 0.00e+00 1.11e+01  -1.0 6.26e+00   0.6 4.95e-01 1.86e-01f  1
 171 -2.6485189e+11 0.00e+00 1.11e+01  -1.0 1.05e+00   1.0 1.00e+00 2.26e-01f  1
 172 -2.6485192e+11 0.00e+00 1.11e+01  -1.0 3.90e-01   1.5 1.00e+00 4.81e-01f  1
 173 -2.6485195e+11 0.00e+00 1.11e+01  -1.0 1.18e+00   1.0 1.00e+00 2.54e-01f  1
 174 -2.6485197e+11 0.00e+00 1.11e+01  -1.0 4.37e-01   1.4 1.00e+00 3.81e-01f  1
 175 -2.6485200e+11 0.00e+00 1.10e+01  -1.0 1.32e+00   0.9 1.00e+00 2.29e-01f  1
 176 -2.6485203e+11 0.00e+00 1.10e+01  -1.0 4.89e-01   1.4 1.00e+00 4.28e-01f  1
 177 -2.6485206e+11 0.00e+00 1.09e+01  -1.0 1.49e+00   0.9 1.00e+00 2.25e-01f  1
 178 -2.6485210e+11 0.00e+00 1.10e+01  -1.0 5.47e-01   1.3 1.00e+00 5.11e-01f  1
 179 -2.6485214e+11 0.00e+00 1.09e+01  -1.0 1.67e+00   0.8 1.00e+00 2.19e-01f  1
iter    objective    inf_pr   inf_du lg(mu)  ||d||  lg(rg) alpha_du alpha_pr  ls
 180 -2.6485217e+11 0.00e+00 1.09e+01  -1.0 6.12e-01   1.3 1.00e+00 5.13e-01f  1
 181 -2.6485222e+11 0.00e+00 1.08e+01  -1.0 1.87e+00   0.8 1.00e+00 2.05e-01f  1
 182 -2.6485225e+11 0.00e+00 1.08e+01  -1.0 6.83e-01   1.2 1.00e+00 4.67e-01f  1
 183 -2.6485230e+11 0.00e+00 1.07e+01  -1.0 2.09e+00   0.7 1.00e+00 1.88e-01f  1
 184 -2.6485233e+11 0.00e+00 1.07e+01  -1.0 7.63e-01   1.2 1.00e+00 4.01e-01f  1
 185 -2.6485239e+11 0.00e+00 1.05e+01  -1.0 2.34e+00   0.7 1.00e+00 1.79e-01f  1
 186 -2.6485242e+11 0.00e+00 1.06e+01  -1.0 8.48e-01   1.1 1.00e+00 3.41e-01f  1
 187 -2.6485248e+11 0.00e+00 1.04e+01  -1.0 2.99e+00   0.6 1.00e+00 2.02e-01f  1
 188 -2.6485251e+11 0.00e+00 1.03e+01  -1.0 9.35e-01   1.0 1.00e+00 3.01e-01f  1
 189 -2.6485260e+11 0.00e+00 1.03e+01  -1.0 5.62e+00   0.6 5.58e-01 1.91e-01f  1
iter    objective    inf_pr   inf_du lg(mu)  ||d||  lg(rg) alpha_du alpha_pr  ls
 190 -2.6485262e+11 0.00e+00 1.02e+01  -1.0 1.04e+00   1.0 1.00e+00 2.40e-01f  1
 191 -2.6485265e+11 0.00e+00 1.03e+01  -1.0 3.88e-01   1.4 1.00e+00 5.52e-01f  1
 192 -2.6485267e+11 0.00e+00 1.02e+01  -1.0 1.18e+00   0.9 1.00e+00 2.36e-01f  1
 193 -2.6485269e+11 0.00e+00 1.02e+01  -1.0 4.35e-01   1.4 1.00e+00 4.41e-01f  1
 194 -2.6485272e+11 0.00e+00 1.01e+01  -1.0 1.32e+00   0.9 1.00e+00 2.31e-01f  1
 195 -2.6485275e+11 0.00e+00 1.02e+01  -1.0 4.87e-01   1.3 1.00e+00 4.97e-01f  1
 196 -2.6485278e+11 0.00e+00 1.01e+01  -1.0 1.48e+00   0.8 1.00e+00 2.33e-01f  1
 197 -2.6485281e+11 0.00e+00 1.01e+01  -1.0 5.45e-01   1.3 1.00e+00 5.53e-01f  1
 198 -2.6485285e+11 0.00e+00 9.98e+00  -1.0 1.66e+00   0.8 1.00e+00 2.28e-01f  1
 199 -2.6485288e+11 0.00e+00 1.00e+01  -1.0 6.09e-01   1.2 1.00e+00 5.44e-01f  1
iter    objective    inf_pr   inf_du lg(mu)  ||d||  lg(rg) alpha_du alpha_pr  ls
 200 -2.6485292e+11 0.00e+00 9.90e+00  -1.0 1.86e+00   0.7 1.00e+00 2.13e-01f  1
 201 -2.6485295e+11 0.00e+00 9.92e+00  -1.0 6.79e-01   1.2 1.00e+00 4.88e-01f  1
 202 -2.6485299e+11 0.00e+00 9.79e+00  -1.0 2.08e+00   0.7 1.00e+00 1.93e-01f  1
 203 -2.6485302e+11 0.00e+00 9.81e+00  -1.0 7.57e-01   1.1 1.00e+00 4.11e-01f  1
 204 -2.6485306e+11 0.00e+00 9.66e+00  -1.0 2.32e+00   0.6 1.00e+00 1.82e-01f  1
 205 -2.6485309e+11 0.00e+00 9.66e+00  -1.0 8.40e-01   1.1 1.00e+00 3.48e-01f  1
 206 -2.6485314e+11 0.00e+00 9.48e+00  -1.0 2.94e+00   0.6 1.00e+00 2.05e-01f  1
 207 -2.6485317e+11 0.00e+00 9.47e+00  -1.0 9.29e-01   1.0 1.00e+00 3.10e-01f  1
 208 -2.6485324e+11 0.00e+00 9.40e+00  -1.0 5.04e+00   0.5 6.35e-01 1.96e-01f  1
 209 -2.6485326e+11 0.00e+00 9.37e+00  -1.0 1.04e+00   1.0 1.00e+00 2.76e-01f  1
iter    objective    inf_pr   inf_du lg(mu)  ||d||  lg(rg) alpha_du alpha_pr  ls
 210 -2.6485328e+11 0.00e+00 9.43e+00  -1.0 3.86e-01   1.4 1.00e+00 5.14e-01f  1
 211 -2.6485330e+11 0.00e+00 9.35e+00  -1.0 1.17e+00   0.9 1.00e+00 2.51e-01f  1
 212 -2.6485332e+11 0.00e+00 9.37e+00  -1.0 4.32e-01   1.3 1.00e+00 4.78e-01f  1
 213 -2.6485335e+11 0.00e+00 9.29e+00  -1.0 1.31e+00   0.9 1.00e+00 2.45e-01f  1
 214 -2.6485337e+11 0.00e+00 9.33e+00  -1.0 4.84e-01   1.3 1.00e+00 5.81e-01f  1
 215 -2.6485340e+11 0.00e+00 9.23e+00  -1.0 1.47e+00   0.8 1.00e+00 2.54e-01f  1
 216 -2.6485343e+11 0.00e+00 9.27e+00  -1.0 5.41e-01   1.2 1.00e+00 6.35e-01f  1
 217 -2.6485346e+11 0.00e+00 9.17e+00  -1.0 1.64e+00   0.8 1.00e+00 2.49e-01f  1
 218 -2.6485349e+11 0.00e+00 9.20e+00  -1.0 6.04e-01   1.2 1.00e+00 6.09e-01f  1
 219 -2.6485353e+11 0.00e+00 9.06e+00  -1.0 1.84e+00   0.7 1.00e+00 2.27e-01f  1
iter    objective    inf_pr   inf_du lg(mu)  ||d||  lg(rg) alpha_du alpha_pr  ls
 220 -2.6485356e+11 0.00e+00 9.09e+00  -1.0 6.73e-01   1.1 1.00e+00 5.25e-01f  1
 221 -2.6485359e+11 0.00e+00 8.95e+00  -1.0 2.05e+00   0.7 1.00e+00 1.98e-01f  1
 222 -2.6485361e+11 0.00e+00 8.96e+00  -1.0 7.48e-01   1.1 1.00e+00 4.25e-01f  1
 223 -2.6485365e+11 0.00e+00 8.80e+00  -1.0 2.29e+00   0.6 1.00e+00 1.85e-01f  1
 224 -2.6485367e+11 0.00e+00 8.81e+00  -1.0 8.29e-01   1.0 1.00e+00 3.56e-01f  1
 225 -2.6485372e+11 0.00e+00 8.67e+00  -1.0 2.87e+00   0.6 1.00e+00 2.07e-01f  1
 226 -2.6485374e+11 0.00e+00 8.67e+00  -1.0 9.21e-01   1.0 1.00e+00 3.27e-01f  1
 227 -2.6485379e+11 0.00e+00 8.59e+00  -1.0 4.45e+00   0.5 7.46e-01 2.06e-01f  1
 228 -2.6485382e+11 0.00e+00 8.57e+00  -1.0 1.03e+00   0.9 1.00e+00 2.86e-01f  1
 229 -2.6485383e+11 0.00e+00 8.63e+00  -1.0 3.82e-01   1.4 1.00e+00 5.66e-01f  1
iter    objective    inf_pr   inf_du lg(mu)  ||d||  lg(rg) alpha_du alpha_pr  ls
 230 -2.6485385e+11 0.00e+00 8.56e+00  -1.0 1.16e+00   0.9 1.00e+00 2.68e-01f  1
 231 -2.6485387e+11 0.00e+00 8.59e+00  -1.0 4.28e-01   1.3 1.00e+00 6.05e-01f  1
 232 -2.6485389e+11 0.00e+00 8.50e+00  -1.0 1.29e+00   0.8 1.00e+00 2.73e-01f  1
 233 -2.6485392e+11 0.00e+00 8.54e+00  -1.0 4.79e-01   1.3 1.00e+00 6.96e-01f  1
 234 -2.6485394e+11 0.00e+00 8.45e+00  -1.0 1.45e+00   0.8 1.00e+00 2.81e-01f  1
 235 -2.6485397e+11 0.00e+00 8.47e+00  -1.0 5.34e-01   1.2 1.00e+00 7.28e-01f  1
 236 -2.6485400e+11 0.00e+00 8.38e+00  -1.0 1.62e+00   0.7 1.00e+00 2.77e-01f  1
 237 -2.6485403e+11 0.00e+00 8.40e+00  -1.0 5.96e-01   1.2 1.00e+00 6.93e-01f  1
 238 -2.6485406e+11 0.00e+00 8.28e+00  -1.0 1.81e+00   0.7 1.00e+00 2.49e-01f  1
 239 -2.6485408e+11 0.00e+00 8.30e+00  -1.0 6.64e-01   1.1 1.00e+00 5.80e-01f  1
iter    objective    inf_pr   inf_du lg(mu)  ||d||  lg(rg) alpha_du alpha_pr  ls
 240 -2.6485411e+11 0.00e+00 8.14e+00  -1.0 2.02e+00   0.6 1.00e+00 2.07e-01f  1
 241 -2.6485413e+11 0.00e+00 8.14e+00  -1.0 7.35e-01   1.0 1.00e+00 4.39e-01f  1
 242 -2.6485416e+11 0.00e+00 7.98e+00  -1.0 2.25e+00   0.6 1.00e+00 1.86e-01f  1
 243 -2.6485418e+11 0.00e+00 8.00e+00  -1.0 8.15e-01   1.0 1.00e+00 3.66e-01f  1
 244 -2.6485421e+11 0.00e+00 7.90e+00  -1.0 2.76e+00   0.5 1.00e+00 2.09e-01f  1
 245 -2.6485423e+11 0.00e+00 7.91e+00  -1.0 9.09e-01   0.9 1.00e+00 3.57e-01f  1
 246 -2.6485427e+11 0.00e+00 7.85e+00  -1.0 4.27e+00   0.5 7.94e-01 2.03e-01f  1
 247 -2.6485429e+11 0.00e+00 7.84e+00  -1.0 1.01e+00   0.9 1.00e+00 3.28e-01f  1
 248 -2.6485431e+11 0.00e+00 7.91e+00  -1.0 3.78e-01   1.3 1.00e+00 8.02e-01f  1
 249 -2.6485433e+11 0.00e+00 7.84e+00  -1.0 1.14e+00   0.8 1.00e+00 3.47e-01f  1
iter    objective    inf_pr   inf_du lg(mu)  ||d||  lg(rg) alpha_du alpha_pr  ls
 250 -2.6485435e+11 0.00e+00 7.85e+00  -1.0 4.23e-01   1.3 1.00e+00 8.77e-01f  1
 251 -2.6485438e+11 0.00e+00 7.76e+00  -1.0 1.28e+00   0.8 1.00e+00 3.15e-01f  1
 252 -2.6485440e+11 0.00e+00 7.77e+00  -1.0 4.71e-01   1.2 1.00e+00 7.73e-01f  1
 253 -2.6485442e+11 0.00e+00 7.68e+00  -1.0 1.43e+00   0.7 1.00e+00 2.86e-01f  1
 254 -2.6485444e+11 0.00e+00 7.69e+00  -1.0 5.25e-01   1.2 1.00e+00 7.35e-01f  1
 255 -2.6485446e+11 0.00e+00 7.61e+00  -1.0 1.60e+00   0.7 1.00e+00 2.86e-01f  1
 256 -2.6485449e+11 0.00e+00 7.62e+00  -1.0 5.85e-01   1.1 1.00e+00 7.52e-01f  1
 257 -2.6485451e+11 0.00e+00 7.54e+00  -1.0 1.78e+00   0.6 1.00e+00 2.83e-01f  1
 258 -2.6485454e+11 0.00e+00 7.55e+00  -1.0 6.53e-01   1.1 1.00e+00 6.99e-01f  1
 259 -2.6485456e+11 0.00e+00 7.41e+00  -1.0 1.98e+00   0.6 1.00e+00 2.40e-01f  1
iter    objective    inf_pr   inf_du lg(mu)  ||d||  lg(rg) alpha_du alpha_pr  ls
 260 -2.6485458e+11 0.00e+00 7.39e+00  -1.0 7.21e-01   1.0 1.00e+00 5.11e-01f  1
 261 -2.6485460e+11 0.00e+00 7.21e+00  -1.0 2.20e+00   0.5 1.00e+00 1.82e-01f  1
 262 -2.6485462e+11 0.00e+00 7.23e+00  -1.0 7.97e-01   1.0 1.00e+00 3.67e-01f  1
 263 -2.6485464e+11 0.00e+00 7.13e+00  -1.0 2.63e+00   0.5 1.00e+00 2.17e-01f  1
 264 -2.6485466e+11 0.00e+00 7.17e+00  -1.0 8.91e-01   0.9 1.00e+00 3.74e-01f  1
 265 -2.6485469e+11 0.00e+00 7.12e+00  -1.0 3.53e+00   0.4 9.86e-01 2.41e-01f  1
 266 -2.6485471e+11 0.00e+00 7.13e+00  -1.0 9.96e-01   0.9 1.00e+00 5.20e-01f  1
 267 -2.6485478e+11 0.00e+00 7.17e+00  -1.0 2.00e+01   0.4 1.41e-01 1.41e-01f  1
 268 -2.6485481e+11 0.00e+00 7.31e+00  -1.0 1.17e+00   0.8 1.00e+00 2.56e-01f  1
 269 -2.6485485e+11 0.00e+00 7.15e+00  -1.0 4.16e-01   1.2 6.76e-01 1.00e+00f  1
iter    objective    inf_pr   inf_du lg(mu)  ||d||  lg(rg) alpha_du alpha_pr  ls
 270 -2.6485487e+11 0.00e+00 7.04e+00  -1.0 1.26e+00   0.8 1.00e+00 1.68e-01f  1
 271 -2.6485491e+11 0.00e+00 7.10e+00  -1.0 4.65e-01   1.2 1.00e+00 1.00e+00f  1
 272 -2.6485493e+11 0.00e+00 6.95e+00  -1.0 1.40e+00   0.7 1.00e+00 1.45e-01f  1
 273 -2.6485496e+11 0.00e+00 7.00e+00  -1.0 5.17e-01   1.1 1.00e+00 7.37e-01f  1
 274 -2.6485499e+11 0.00e+00 6.87e+00  -1.0 1.56e+00   0.7 1.00e+00 2.60e-01f  1
 275 -2.6485502e+11 0.00e+00 6.87e+00  -1.0 5.73e-01   1.1 1.00e+00 4.95e-01f  1
 276 -2.6485505e+11 0.00e+00 6.76e+00  -1.0 1.74e+00   0.6 1.00e+00 2.08e-01f  1
 277 -2.6485507e+11 0.00e+00 6.79e+00  -1.0 6.39e-01   1.0 1.00e+00 4.23e-01f  1
 278 -2.6485510e+11 0.00e+00 6.72e+00  -1.0 1.96e+00   0.6 1.00e+00 2.31e-01f  1
 279 -2.6485513e+11 0.00e+00 6.75e+00  -1.0 7.14e-01   1.0 1.00e+00 4.26e-01f  1
iter    objective    inf_pr   inf_du lg(mu)  ||d||  lg(rg) alpha_du alpha_pr  ls
 280 -2.6485517e+11 0.00e+00 6.68e+00  -1.0 2.19e+00   0.5 1.00e+00 2.36e-01f  1
 281 -2.6485519e+11 0.00e+00 6.69e+00  -1.0 7.98e-01   0.9 1.00e+00 3.82e-01f  1
 282 -2.6485523e+11 0.00e+00 6.51e+00  -1.0 2.39e+00   0.5 1.00e+00 2.34e-01f  1
 283 -2.6485524e+11 0.00e+00 6.22e+00  -1.0 8.34e-01   0.9 1.00e+00 3.35e-01f  1
 284 -2.6485527e+11 0.00e+00 5.98e+00  -1.0 2.70e+00   0.4 1.00e+00 2.18e-01f  1
 285 -2.6485528e+11 0.00e+00 6.00e+00  -1.0 9.08e-01   0.8 1.00e+00 4.01e-01f  1
 286 -2.6485531e+11 0.00e+00 5.93e+00  -1.0 3.80e+00   0.3 9.02e-01 2.20e-01f  1
 287 -2.6485532e+11 0.00e+00 5.92e+00  -1.0 1.01e+00   0.8 1.00e+00 3.39e-01f  1
 288 -2.6485538e+11 0.00e+00 5.95e+00  -1.0 1.93e+01   0.3 1.52e-01 1.48e-01f  1
 289 -2.6485541e+11 0.00e+00 5.91e+00  -1.0 1.16e+00   0.7 1.00e+00 3.32e-01f  1
iter    objective    inf_pr   inf_du lg(mu)  ||d||  lg(rg) alpha_du alpha_pr  ls
 290 -2.6485543e+11 0.00e+00 5.92e+00  -1.0 4.21e-01   1.1 8.83e-01 4.69e-01f  1
 291 -2.6485545e+11 0.00e+00 5.86e+00  -1.0 1.27e+00   0.7 1.00e+00 3.06e-01f  1
 292 -2.6485548e+11 0.00e+00 5.89e+00  -1.0 4.70e-01   1.1 1.00e+00 9.09e-01f  1
 293 -2.6485551e+11 0.00e+00 5.81e+00  -1.0 1.42e+00   0.6 1.00e+00 3.49e-01f  1
 294 -2.6485554e+11 0.00e+00 5.81e+00  -1.0 5.22e-01   1.0 1.00e+00 8.22e-01f  1
 295 -2.6485557e+11 0.00e+00 5.69e+00  -1.0 1.57e+00   0.6 1.00e+00 2.82e-01f  1
 296 -2.6485559e+11 0.00e+00 5.70e+00  -1.0 5.77e-01   1.0 1.00e+00 6.33e-01f  1
 297 -2.6485562e+11 0.00e+00 5.59e+00  -1.0 1.75e+00   0.5 1.00e+00 2.39e-01f  1
 298 -2.6485564e+11 0.00e+00 5.59e+00  -1.0 6.39e-01   0.9 1.00e+00 5.24e-01f  1
 299 -2.6485567e+11 0.00e+00 5.49e+00  -1.0 1.94e+00   0.5 1.00e+00 2.27e-01f  1
iter    objective    inf_pr   inf_du lg(mu)  ||d||  lg(rg) alpha_du alpha_pr  ls
 300 -2.6485568e+11 0.00e+00 5.50e+00  -1.0 7.08e-01   0.9 1.00e+00 4.61e-01f  1
 301 -2.6485571e+11 0.00e+00 5.30e+00  -1.0 2.10e+00   0.4 1.00e+00 2.27e-01f  1
 302 -2.6485572e+11 0.00e+00 5.10e+00  -1.0 7.39e-01   0.8 1.00e+00 4.09e-01f  1
 303 -2.6485574e+11 0.00e+00 4.91e+00  -1.0 2.23e+00   0.4 1.00e+00 2.34e-01f  1
 304 -2.6485575e+11 0.00e+00 4.95e+00  -1.0 8.06e-01   0.8 1.00e+00 5.62e-01f  1
 305 -2.6485577e+11 0.00e+00 4.84e+00  -1.0 2.60e+00   0.3 1.00e+00 2.29e-01f  1
 306 -2.6485578e+11 0.00e+00 4.87e+00  -1.0 8.95e-01   0.7 1.00e+00 5.07e-01f  1
 307 -2.6485580e+11 0.00e+00 4.76e+00  -1.0 3.41e+00   0.3 1.00e+00 2.22e-01f  1
 308 -2.6485581e+11 0.00e+00 4.79e+00  -1.0 9.91e-01   0.7 1.00e+00 4.80e-01f  1
 309 -2.6485585e+11 0.00e+00 4.76e+00  -1.0 6.98e+00   0.2 4.44e-01 2.13e-01f  1
iter    objective    inf_pr   inf_du lg(mu)  ||d||  lg(rg) alpha_du alpha_pr  ls
 310 -2.6485586e+11 0.00e+00 4.73e+00  -1.0 1.10e+00   0.6 1.00e+00 3.96e-01f  1
 311 -2.6485589e+11 0.00e+00 4.73e+00  -1.0 1.28e+02   0.2 2.26e-02 2.21e-02f  1
 312 -2.6485592e+11 0.00e+00 4.69e+00  -1.0 1.24e+00   0.6 1.00e+00 3.90e-01f  1
 313 -2.6485598e+11 0.00e+00 4.68e+00  -1.0 1.27e+01   0.1 2.35e-01 1.79e-01f  1
 314 -2.6485600e+11 0.00e+00 4.60e+00  -1.0 1.37e+00   0.5 1.00e+00 2.89e-01f  1
 315 -2.6485606e+11 0.00e+00 4.57e+00  -1.0 1.05e+01   0.1 2.86e-01 1.72e-01f  1
 316 -2.6485609e+11 0.00e+00 4.47e+00  -1.0 1.50e+00   0.5 1.00e+00 2.31e-01f  1
 317 -2.6485617e+11 0.00e+00 4.44e+00  -1.0 9.90e+00   0.0 3.06e-01 1.92e-01f  1
 318 -2.6485619e+11 0.00e+00 4.29e+00  -1.0 1.61e+00   0.4 1.00e+00 2.09e-01f  1
 319 -2.6485627e+11 0.00e+00 4.15e+00  -1.0 7.32e+00  -0.0 4.21e-01 1.91e-01f  1
iter    objective    inf_pr   inf_du lg(mu)  ||d||  lg(rg) alpha_du alpha_pr  ls
 320 -2.6485630e+11 0.00e+00 3.97e+00  -1.0 1.67e+00   0.4 1.00e+00 2.34e-01f  1
 321 -2.6485636e+11 0.00e+00 3.57e+00  -1.0 7.59e+00  -0.1 4.10e-01 1.97e-01f  1
 322 -2.6485638e+11 0.00e+00 3.31e+00  -1.0 1.57e+00   0.3 1.00e+00 2.83e-01f  1
 323 -2.6485643e+11 0.00e+00 3.16e+00  -1.0 6.23e+00  -0.1 5.11e-01 2.05e-01f  1
 324 -2.6485646e+11 0.00e+00 2.91e+00  -1.0 1.54e+00   0.3 1.00e+00 3.14e-01f  1
 325 -2.6485650e+11 0.00e+00 2.75e+00  -1.0 5.92e+00  -0.2 5.53e-01 2.15e-01f  1
 326 -2.6485652e+11 0.00e+00 2.54e+00  -1.0 1.51e+00   0.2 1.00e+00 3.13e-01f  1
 327 -2.6485655e+11 0.00e+00 2.35e+00  -1.0 5.27e+00  -0.2 6.29e-01 2.37e-01f  1
 328 -2.6485656e+11 0.00e+00 2.22e+00  -1.0 1.49e+00   0.2 1.00e+00 3.37e-01f  1
 329 -2.6485659e+11 0.00e+00 2.00e+00  -1.0 4.75e+00  -0.3 7.25e-01 2.45e-01f  1
iter    objective    inf_pr   inf_du lg(mu)  ||d||  lg(rg) alpha_du alpha_pr  ls
 330 -2.6485660e+11 0.00e+00 1.90e+00  -1.0 1.43e+00   0.1 1.00e+00 3.88e-01f  1
 331 -2.6485662e+11 0.00e+00 1.73e+00  -1.0 4.47e+00  -0.4 7.83e-01 2.60e-01f  1
 332 -2.6485663e+11 0.00e+00 1.63e+00  -1.0 1.38e+00   0.1 1.00e+00 4.24e-01f  1
 333 -2.6485664e+11 0.00e+00 1.47e+00  -1.0 4.10e+00  -0.4 8.66e-01 2.74e-01f  1
 334 -2.6485665e+11 0.00e+00 1.40e+00  -1.0 1.33e+00   0.0 1.00e+00 4.70e-01f  1
 335 -2.6485666e+11 0.00e+00 1.25e+00  -1.0 3.88e+00  -0.5 9.51e-01 2.93e-01f  1
 336 -2.6485667e+11 0.00e+00 1.20e+00  -1.0 1.28e+00  -0.0 1.00e+00 5.33e-01f  1
 337 -2.6485668e+11 0.00e+00 1.07e+00  -1.0 3.67e+00  -0.5 1.00e+00 3.12e-01f  1
 338 -2.6485668e+11 0.00e+00 1.03e+00  -1.0 1.23e+00  -0.1 1.00e+00 5.70e-01f  1
 339 -2.6485669e+11 0.00e+00 9.16e-01  -1.0 3.53e+00  -0.6 1.00e+00 3.36e-01f  1
iter    objective    inf_pr   inf_du lg(mu)  ||d||  lg(rg) alpha_du alpha_pr  ls
 340 -2.6485670e+11 0.00e+00 2.74e+01  -1.7 1.24e+00  -0.1 1.00e+00 4.65e-01f  1
 341 -2.6485671e+11 0.00e+00 2.50e+01  -1.7 3.75e+00  -0.6 1.00e+00 2.86e-01f  1
 342 -2.6485671e+11 0.00e+00 1.62e+01  -1.7 1.29e+00  -0.2 1.00e+00 3.92e-01f  1
 343 -2.6485672e+11 0.00e+00 1.22e+01  -1.7 3.85e+00  -0.7 1.00e+00 2.48e-01f  1
 344 -2.6485672e+11 0.00e+00 7.47e+00  -1.7 1.32e+00  -0.2 1.00e+00 3.94e-01f  1
 345 -2.6485672e+11 0.00e+00 5.88e+00  -1.7 3.91e+00  -0.7 1.00e+00 2.09e-01f  1
 346 -2.6485672e+11 0.00e+00 3.58e+00  -1.7 1.34e+00  -0.3 1.00e+00 3.95e-01f  1
 347 -2.6485673e+11 0.00e+00 2.79e+00  -1.7 3.97e+00  -0.8 1.00e+00 2.22e-01f  1
 348 -2.6485673e+11 0.00e+00 1.69e+00  -1.7 1.35e+00  -0.3 1.00e+00 3.95e-01f  1
 349 -2.6485673e+11 0.00e+00 1.31e+00  -1.7 3.99e+00  -0.8 1.00e+00 2.30e-01f  1
iter    objective    inf_pr   inf_du lg(mu)  ||d||  lg(rg) alpha_du alpha_pr  ls
 350 -2.6485673e+11 0.00e+00 7.75e-01  -1.7 1.34e+00  -0.4 1.00e+00 4.06e-01f  1
 351 -2.6485673e+11 0.00e+00 6.05e-01  -1.7 3.96e+00  -0.9 1.00e+00 2.37e-01f  1
 352 -2.6485673e+11 0.00e+00 4.81e-01  -1.7 1.32e+00  -0.4 1.00e+00 4.35e-01f  1
 353 -2.6485673e+11 0.00e+00 4.32e-01  -1.7 3.88e+00  -0.9 1.00e+00 2.45e-01f  1
 354 -2.6485673e+11 0.00e+00 4.25e-01  -1.7 1.31e+00  -0.5 1.00e+00 5.00e-01f  1
 355 -2.6485674e+11 0.00e+00 3.81e-01  -1.7 3.74e+00  -1.0 1.00e+00 2.62e-01f  1
 356 -2.6485674e+11 0.00e+00 3.64e-01  -1.7 1.27e+00  -0.5 1.00e+00 6.36e-01f  1
 357 -2.6485674e+11 0.00e+00 3.24e-01  -1.7 3.61e+00  -1.0 1.00e+00 3.08e-01f  1
 358 -2.6485674e+11 0.00e+00 3.03e-01  -1.7 1.18e+00  -0.6 1.00e+00 8.70e-01f  1
 359 -2.6485674e+11 0.00e+00 2.65e-01  -1.7 3.27e+00  -1.1 1.00e+00 4.05e-01f  1
iter    objective    inf_pr   inf_du lg(mu)  ||d||  lg(rg) alpha_du alpha_pr  ls
 360 -2.6485674e+11 0.00e+00 2.51e-01  -1.7 1.09e+00  -0.6 1.00e+00 1.00e+00f  1
 361 -2.6485674e+11 0.00e+00 2.13e-01  -1.7 2.97e+00  -1.1 1.00e+00 2.27e-01f  1
 362 -2.6485674e+11 0.00e+00 2.08e-01  -1.7 1.02e+00  -0.7 1.00e+00 1.00e+00f  1
 363 -2.6485674e+11 0.00e+00 1.80e-01  -1.7 2.81e+00  -1.2 1.00e+00 2.90e-01f  1
 364 -2.6485674e+11 0.00e+00 1.74e-01  -2.5 2.23e+01  -1.6 1.68e-01 1.69e-01f  1
 365 -2.6485674e+11 0.00e+00 7.18e-01  -2.5 1.17e+01  -2.1 1.71e-01 1.21e-01f  1
 366 -2.6485674e+11 0.00e+00 2.53e+00  -2.5 3.76e+01  -2.6 1.98e-01 2.91e-02f  3
 367 -2.6485674e+11 0.00e+00 2.74e+00  -2.5 3.13e+01    -  1.48e-01 9.78e-02f  1
 368 -2.6485674e+11 0.00e+00 7.97e+00  -2.5 1.29e+01    -  1.00e+00 2.46e-01f  1
 369 -2.6485675e+11 0.00e+00 7.43e-01  -2.5 4.98e+00    -  1.00e+00 1.00e+00f  1
iter    objective    inf_pr   inf_du lg(mu)  ||d||  lg(rg) alpha_du alpha_pr  ls
 370 -2.6485675e+11 0.00e+00 1.74e-02  -2.5 1.07e-01    -  1.00e+00 1.00e+00f  1
 371 -2.6485675e+11 0.00e+00 1.17e-01  -3.8 1.37e-01    -  1.00e+00 1.00e+00f  1
 372 -2.6485675e+11 0.00e+00 8.54e-04  -3.8 1.83e-03    -  1.00e+00 1.00e+00f  1
 373 -2.6485675e+11 0.00e+00 4.98e-04  -5.7 7.71e-03    -  1.00e+00 1.00e+00f  1
 374 -2.6485675e+11 0.00e+00 1.50e-08  -5.7 4.90e-06    -  1.00e+00 1.00e+00f  1
 375 -2.6485675e+11 0.00e+00 7.71e-08  -8.6 9.57e-05    -  1.00e+00 1.00e+00f  1
 376 -2.6485675e+11 0.00e+00 3.61e-10  -8.6 7.60e-10    -  1.00e+00 1.00e+00f  1

Number of Iterations....: 376

                                   (scaled)                 (unscaled)
Objective...............:  -5.2971349289141804e+08   -2.6485674644570901e+11
Dual infeasibility......:   3.6133860703557729e-10    1.8066930351778865e-07
Constraint violation....:   0.0000000000000000e+00    0.0000000000000000e+00
Complementarity.........:   2.5059195289442861e-09    1.2529597644721430e-06
Overall NLP error.......:   2.5059195289442861e-09    1.2529597644721430e-06


Number of objective function evaluations             = 383
Number of objective gradient evaluations             = 377
Number of equality constraint evaluations            = 0
Number of inequality constraint evaluations          = 0
Number of equality constraint Jacobian evaluations   = 0
Number of inequality constraint Jacobian evaluations = 0
Number of Lagrangian Hessian evaluations             = 376
Total CPU secs in IPOPT (w/o function evaluations)   =      1.150
Total CPU secs in NLP function evaluations           =      0.300

EXIT: Optimal Solution Found.

 ** SUBROUTINE CUTEST_csetup: Warning. The problem has no general constraints. 
 ** Other tools may be preferable ** 

************************ CUTEst statistics ************************


 Package used            :  IPOPT
 Problem                 :  QRTQUAD   
 # variables             =            5000
 # constraints           =               0
 # objective functions   =        0.7610000E+03
 # objective gradients   =        0.3780000E+03
 # objective Hessians    =        0.3770000E+03
 # Hessian-vector prdct  =        0.0000000E+00
 # constraints functions =        0.0000000E+00
 # constraints gradients =        0.0000000E+00
 # constraints Hessians  =        0.0000000E+00
 Exit code               =               0
 Final f                 =  -0.2648567E+12
 Set up time             =            0.19 seconds
 Solve time              =            1.56 seconds


******************************************************************

System Time =       1.4429999590 s.
